des Fully inherited from the final state of Si.rho.sp.1
len_units Angstrom
hex_a None
hex_c None
gbpos None
version 1
acell 1 1 1
natom  2
ntypat 1
znucl  14 
typat  1 1 
rprim  3.333573000000 0.000000000000 1.924639000000 
1.111191000000 3.142924000000 1.924639000000 
0.000000000000 0.000000000000 3.849278000000 
xred  0.875000000000 0.875000000000 0.875000000000 
0.125000000000 0.125000000000 0.125000000000 
xcart  3.889168500000 2.750058500000 6.736236500000 
0.555595500000 0.392865500000 0.962319500000 
